p cnf 20 94
4 7 11 16 22 29 37 46 56 67 0
8 12 17 23 30 38 47 57 68 80 0
-4 -8 0
-7 -12 0
-11 -17 0
-16 -23 0
-22 -30 0
-29 -38 0
-37 -47 0
-46 -57 0
-56 -68 0
-67 -80 0
-4 -12 0
-4 -17 0
-4 -23 0
-4 -30 0
-4 -38 0
-4 -47 0
-4 -68 0
-4 -80 0
-7 -17 0
-7 -23 0
-7 -30 0
-7 -38 0
-7 -47 0
-7 -57 0
-7 -68 0
-7 -80 0
-11 -23 0
-11 -30 0
-11 -38 0
-11 -47 0
-11 -57 0
-11 -80 0
-16 -30 0
-16 -38 0
-16 -47 0
-16 -57 0
-16 -68 0
-16 -80 0
-22 -38 0
-22 -47 0
-22 -57 0
-22 -80 0
-29 -47 0
-29 -57 0
-29 -80 0
-37 -57 0
-37 -68 0
-37 -80 0
-46 -68 0
-46 -80 0
-56 -80 0
-8 -7 0
-8 -11 0
-8 -16 0
-8 -22 0
-8 -29 0
-8 -37 0
-8 -56 0
-8 -67 0
-12 -11 0
-12 -16 0
-12 -22 0
-12 -29 0
-12 -37 0
-12 -46 0
-12 -56 0
-12 -67 0
-17 -16 0
-17 -22 0
-17 -29 0
-17 -37 0
-17 -46 0
-17 -67 0
-23 -22 0
-23 -29 0
-23 -37 0
-23 -46 0
-23 -56 0
-23 -67 0
-30 -29 0
-30 -37 0
-30 -46 0
-30 -67 0
-38 -37 0
-38 -46 0
-38 -67 0
-47 -46 0
-47 -56 0
-47 -67 0
-57 -56 0
-57 -67 0
-68 -67 0
